certificates/rado_a10_c192_N21.cnf
c Rad2 upper bound instance: x1 + 10*x2 - x3 = 192, interval [1,21]
p cnf 21 88
1 9 20 0
-1 -9 -20 0
1 19 21 0
-1 -19 -21 0
2 10 20 0
-2 -10 -20 0
2 20 21 0
-2 -20 -21 0
1 3 19 0
-1 -3 -19 0
3 11 20 0
-3 -11 -20 0
3 21 0
-3 -21 0
2 4 19 0
-2 -4 -19 0
4 12 20 0
-4 -12 -20 0
3 5 19 0
-3 -5 -19 0
5 13 20 0
-5 -13 -20 0
4 6 19 0
-4 -6 -19 0
6 14 20 0
-6 -14 -20 0
5 7 19 0
-5 -7 -19 0
7 15 20 0
-7 -15 -20 0
6 8 19 0
-6 -8 -19 0
8 16 20 0
-8 -16 -20 0
7 9 19 0
-7 -9 -19 0
9 17 20 0
-9 -17 -20 0
8 10 19 0
-8 -10 -19 0
10 18 20 0
-10 -18 -20 0
9 11 19 0
-9 -11 -19 0
11 19 20 0
-11 -19 -20 0
10 12 19 0
-10 -12 -19 0
12 20 0
-12 -20 0
1 13 18 0
-1 -13 -18 0
11 13 19 0
-11 -13 -19 0
13 20 21 0
-13 -20 -21 0
2 14 18 0
-2 -14 -18 0
12 14 19 0
-12 -14 -19 0
3 15 18 0
-3 -15 -18 0
13 15 19 0
-13 -15 -19 0
4 16 18 0
-4 -16 -18 0
14 16 19 0
-14 -16 -19 0
5 17 18 0
-5 -17 -18 0
15 17 19 0
-15 -17 -19 0
6 18 0
-6 -18 0
16 18 19 0
-16 -18 -19 0
7 18 19 0
-7 -18 -19 0
17 19 0
-17 -19 0
8 18 20 0
-8 -18 -20 0
18 19 20 0
-18 -19 -20 0
9 18 21 0
-9 -18 -21 0
19 21 0
-19 -21 0
