certificates/rado_a10_c192_N21.drat
3 19 0
d 3 5 19 0
-21 0
3 0
19 0
-5 0
-17 0
-1 0
18 0
-6 0
-16 0
-7 0
-20 0
-15 0
14 0
8 0
0
